(set-logic HORN)
(declare-fun state (Int Int (Array Int Int) (Array Int Int) Int Int Int Int Int Int Bool Bool Bool Bool Bool Bool Int Bool Int Int (Array Int Int) (Array Int Int) Int Int (Array Int Int) (Array Int Int) Int Int Int Int (Array Int Int) Int (Array Int Int)) Bool)
(assert (forall ((|.y.13| Int) (|.y.14| Int) (|F_3| (Array Int Int)) (|.y.15| (Array Int Int)) (|A_4| Int) (|E_3| Int) (|D_3| Int) (|.y.16| Int) (|.y.17| Int) (|.y.18| Int) (|.loc.19| Bool) (|.loc.20| Bool) (|A1| Bool) (|H_0| Bool) (|G_0| Bool) (|V_0| Bool) (|J_0| Int) (|C_0| Bool) (|Z| Int) (|Q_0| Int) (|Y_0| (Array Int Int)) (|P_0| (Array Int Int)) (|W_0| Int) (|N_0| Int) (|S_0| (Array Int Int)) (|K_0| (Array Int Int)) (|I_0| Int) (|F_0| Int) (|G_3| Int) (|B1| Int) (|X_0| (Array Int Int)) (|U_0| Int) (|T_0| (Array Int Int)) (|.loc.31| Bool) (|.y.26| Int) (|.y.23| (Array Int Int)) (|.y.27| Int) (|.y.25| Int) (|.loc.32| Bool) (|.y.29| Int) (|.y.28| Int) (|.y.30| Int) (|.y.21| Int) (|.y.24| (Array Int Int)) (|.y.22| Int) (|.xtv.1| Bool) (|.xtv.2| Bool) (|.xtv.3| Bool) (|.xtv.4| Bool) (|.xtv.5| Int) (|.xtv.6| Bool) (|.xtv.7| Int) (|.xtv.8| Int) (|.xtv.9| (Array Int Int)) (|.xtv.10| (Array Int Int)) (|.xtv.11| Int) (|.xtv.12| Int) (|.xtv.13| (Array Int Int)) (|.xtv.14| (Array Int Int)) (|.xtv.15| Int) (|.xtv.16| Int) (|.xtv.17| Int) (|.xtv.18| Int) (|.xtv.19| (Array Int Int)) (|.xtv.20| Int) (|.xtv.21| (Array Int Int))) (=> (and (not .loc.19) (not .loc.20)) (state |.y.13| |.y.14| |F_3| |.y.15| |A_4| |E_3| |D_3| |.y.16| |.y.17| |.y.18| |.loc.19| |.loc.20| |A1| |H_0| |G_0| |V_0| |J_0| |C_0| |Z| |Q_0| |Y_0| |P_0| |W_0| |N_0| |S_0| |K_0| |I_0| |F_0| |G_3| |B1| |X_0| |U_0| |T_0|))))
(assert (forall ((|.y.13| Int) (|.y.14| Int) (|F_3| (Array Int Int)) (|.y.15| (Array Int Int)) (|A_4| Int) (|E_3| Int) (|D_3| Int) (|.y.16| Int) (|.y.17| Int) (|.y.18| Int) (|.loc.19| Bool) (|.loc.20| Bool) (|A1| Bool) (|H_0| Bool) (|G_0| Bool) (|V_0| Bool) (|J_0| Int) (|C_0| Bool) (|Z| Int) (|Q_0| Int) (|Y_0| (Array Int Int)) (|P_0| (Array Int Int)) (|W_0| Int) (|N_0| Int) (|S_0| (Array Int Int)) (|K_0| (Array Int Int)) (|I_0| Int) (|F_0| Int) (|G_3| Int) (|B1| Int) (|X_0| (Array Int Int)) (|U_0| Int) (|T_0| (Array Int Int)) (|.loc.31| Bool) (|.y.26| Int) (|.y.23| (Array Int Int)) (|.y.27| Int) (|.y.25| Int) (|.loc.32| Bool) (|.y.29| Int) (|.y.28| Int) (|.y.30| Int) (|.y.21| Int) (|.y.24| (Array Int Int)) (|.y.22| Int) (|.xtv.1| Bool) (|.xtv.2| Bool) (|.xtv.3| Bool) (|.xtv.4| Bool) (|.xtv.5| Int) (|.xtv.6| Bool) (|.xtv.7| Int) (|.xtv.8| Int) (|.xtv.9| (Array Int Int)) (|.xtv.10| (Array Int Int)) (|.xtv.11| Int) (|.xtv.12| Int) (|.xtv.13| (Array Int Int)) (|.xtv.14| (Array Int Int)) (|.xtv.15| Int) (|.xtv.16| Int) (|.xtv.17| Int) (|.xtv.18| Int) (|.xtv.19| (Array Int Int)) (|.xtv.20| Int) (|.xtv.21| (Array Int Int))) (=> (and (state |.y.13| |.y.14| |F_3| |.y.15| |A_4| |E_3| |D_3| |.y.16| |.y.17| |.y.18| |.loc.19| |.loc.20| |A1| |H_0| |G_0| |V_0| |J_0| |C_0| |Z| |Q_0| |Y_0| |P_0| |W_0| |N_0| |S_0| |K_0| |I_0| |F_0| |G_3| |B1| |X_0| |U_0| |T_0|) (let ((.def_43 (not .loc.19))) (let ((.def_44 (not .loc.20))) (let ((.def_49 (<= (select F_3 G_3) (- 1)))) (let ((.def_53 (<= E_3 0))) (let ((.def_64 (and (or (not (<= G_3 0)) .def_53) (and (not (<= A_4 D_3)) (and (= (+ E_3 (+ D_3 (* (- 1) G_3))) 0) (not .def_53)))))) (let ((.def_82 (not .loc.31))) (let ((.def_89 (= A_4 .y.25))) (let ((.def_126 (not .loc.32))) (let ((.def_148 (not G_0))) (let ((.def_153 (<= .y.16 0))) (let ((.def_154 (not V_0))) (let ((.def_159 (<= D_3 0))) (let ((.def_160 (not A1))) (or (or (and (or (or (and (and .def_43 (and .loc.20 (and .def_49 .def_64))) .loc.31) (and (= D_3 .y.26) (and (and (= .y.15 .y.23) (and (<= (to_int (* (/ 1 16777216) (to_real (* 16777216 .y.18)))) .y.13) (and (= .y.27 0) (and .def_44 (and .loc.19 .def_82))))) .def_89))) (and (= E_3 .y.26) (and (= F_3 .y.23) (and (= (+ D_3 (* (- 1) .y.27)) (- 1)) (and .def_89 (and .def_82 (and .def_43 (and .loc.20 (and .def_64 (not .def_49)))))))))) .loc.32) (and (= .y.13 .y.29) (and (not (<= .y.27 0)) (and (not (<= .y.28 0)) (and (not (<= .y.30 0)) (and (= .y.26 0) (and (= .y.25 0) (and (= .y.21 0) (and (and .def_44 (and .def_43 .loc.31)) .def_126))))))))) (and (= .y.18 .y.30) (and (= .y.17 .y.29) (and (= .y.16 .y.28) (and (= D_3 .y.27) (and (or (not C_0) (or (not (<= (to_int (* (/ 1 16777216) (to_real (* (- 1) (* (- 16777216) .y.18))))) .y.13)) .def_148)) (and (or (not (<= F_0 0)) (or .def_153 .def_154)) (and (or (not (<= I_0 0)) (or .def_159 .def_160)) (and (or .def_154 (= .y.15 T_0)) (and (or .def_154 (= S_0 .y.23)) (and (or .def_154 (= T_0 .y.24)) (and (or .def_154 (= A_4 U_0)) (and (or .def_154 (= W_0 .y.26)) (and (or .def_154 (= U_0 .y.25)) (and (or .def_160 (= F_3 X_0)) (and (or .def_160 (= X_0 .y.23)) (and (or .def_160 (= Y_0 .y.24)) (and (or .def_160 (= B1 .y.26)) (and (or .def_160 (= E_3 B1)) (and (or .def_160 (= Z .y.25)) (and (or .def_148 (= .y.17 G_3)) (and (or .def_154 (= K_0 (store F_3 F_0 J_0))) (and (or .def_154 (= (+ E_3 (+ .y.16 (* (- 1) F_0))) 0)) (and (or .def_154 (= (+ E_3 (* (- 1) N_0)) (- 1))) (and (or .def_154 (not .def_153)) (and (or .def_160 (= P_0 (store .y.15 I_0 J_0))) (and (or .def_160 (= (+ A_4 (+ D_3 (* (- 1) I_0))) 0)) (and (or .def_160 (= (+ A_4 (* (- 1) Q_0)) (- 1))) (and (or .def_160 (not .def_159)) (and (= (+ .y.13 (* (- 1) .y.21)) (- 1)) (and .def_126 (and .def_44 (and .loc.31 (and .loc.19 (and (or A1 V_0) (and (or .def_154 (= S_0 K_0)) (and (or .def_154 (= W_0 N_0)) (and (or .def_160 (= Y_0 P_0)) (and (or .def_160 (= Z Q_0)) (and (or .def_160 (and A1 G_0)) (and (or .def_154 (and G_0 V_0)) (and (or .def_148 (and G_0 C_0)) (and (or .def_148 (= H_0 (not (<= J_0 (- 1))))) (and (or .def_148 (or .def_154 (not H_0))) (or .def_148 (or H_0 .def_160)))))))))))))))))))))))))))))))))))))))))))))))))))))))))))) (state |.y.21| |.y.22| |.y.23| |.y.24| |.y.25| |.y.26| |.y.27| |.y.28| |.y.29| |.y.30| |.loc.31| |.loc.32| |.xtv.1| |.xtv.2| |.xtv.3| |.xtv.4| |.xtv.5| |.xtv.6| |.xtv.7| |.xtv.8| |.xtv.9| |.xtv.10| |.xtv.11| |.xtv.12| |.xtv.13| |.xtv.14| |.xtv.15| |.xtv.16| |.xtv.17| |.xtv.18| |.xtv.19| |.xtv.20| |.xtv.21|))))
(assert (forall ((|.y.13| Int) (|.y.14| Int) (|F_3| (Array Int Int)) (|.y.15| (Array Int Int)) (|A_4| Int) (|E_3| Int) (|D_3| Int) (|.y.16| Int) (|.y.17| Int) (|.y.18| Int) (|.loc.19| Bool) (|.loc.20| Bool) (|A1| Bool) (|H_0| Bool) (|G_0| Bool) (|V_0| Bool) (|J_0| Int) (|C_0| Bool) (|Z| Int) (|Q_0| Int) (|Y_0| (Array Int Int)) (|P_0| (Array Int Int)) (|W_0| Int) (|N_0| Int) (|S_0| (Array Int Int)) (|K_0| (Array Int Int)) (|I_0| Int) (|F_0| Int) (|G_3| Int) (|B1| Int) (|X_0| (Array Int Int)) (|U_0| Int) (|T_0| (Array Int Int)) (|.loc.31| Bool) (|.y.26| Int) (|.y.23| (Array Int Int)) (|.y.27| Int) (|.y.25| Int) (|.loc.32| Bool) (|.y.29| Int) (|.y.28| Int) (|.y.30| Int) (|.y.21| Int) (|.y.24| (Array Int Int)) (|.y.22| Int) (|.xtv.1| Bool) (|.xtv.2| Bool) (|.xtv.3| Bool) (|.xtv.4| Bool) (|.xtv.5| Int) (|.xtv.6| Bool) (|.xtv.7| Int) (|.xtv.8| Int) (|.xtv.9| (Array Int Int)) (|.xtv.10| (Array Int Int)) (|.xtv.11| Int) (|.xtv.12| Int) (|.xtv.13| (Array Int Int)) (|.xtv.14| (Array Int Int)) (|.xtv.15| Int) (|.xtv.16| Int) (|.xtv.17| Int) (|.xtv.18| Int) (|.xtv.19| (Array Int Int)) (|.xtv.20| Int) (|.xtv.21| (Array Int Int))) (=> (state |.y.13| |.y.14| |F_3| |.y.15| |A_4| |E_3| |D_3| |.y.16| |.y.17| |.y.18| |.loc.19| |.loc.20| |A1| |H_0| |G_0| |V_0| |J_0| |C_0| |Z| |Q_0| |Y_0| |P_0| |W_0| |N_0| |S_0| |K_0| |I_0| |F_0| |G_3| |B1| |X_0| |U_0| |T_0|) (not (and .loc.19 .loc.20)))))
(check-sat)
